(set-info :smt-lib-version 2.6)
(set-logic QF_NIA)
(set-info :source |
Generated by: Cristina Borralleras, Daniel Larraz, Albert Oliveras, Enric Rodriguez-Carbonell, Albert Rubio
Generated on: 2017-04-27
Generator: VeryMax
Application: Termination proving
Target solver: barcelogic
|)
(set-info :license "https://creativecommons.org/licenses/by/4.0/")
(set-info :category "industrial")
(set-info :status unsat)
(declare-fun Nl2arg11 () Int)
(declare-fun Nl2arg21 () Int)
(declare-fun Nl2arg31 () Int)
(declare-fun Nl2arg41 () Int)
(declare-fun Nl2arg51 () Int)
(declare-fun lam0n0 () Int)
(declare-fun lam0n1 () Int)
(declare-fun lam0n2 () Int)
(declare-fun lam0n3 () Int)
(declare-fun lam0n4 () Int)
(declare-fun lam0n5 () Int)
(declare-fun lam0n6 () Int)
(declare-fun lam0n8 () Int)
(declare-fun Nl2CT1 () Int)
(declare-fun lam0n7 () Int)
(declare-fun lam1n0 () Int)
(declare-fun lam1n1 () Int)
(declare-fun lam1n2 () Int)
(declare-fun lam1n3 () Int)
(declare-fun lam1n4 () Int)
(declare-fun lam1n5 () Int)
(declare-fun lam1n6 () Int)
(declare-fun lam1n8 () Int)
(declare-fun lam1n7 () Int)
(declare-fun lam4n0 () Int)
(declare-fun lam4n1 () Int)
(declare-fun lam4n2 () Int)
(declare-fun lam4n3 () Int)
(declare-fun lam4n4 () Int)
(declare-fun lam4n5 () Int)
(declare-fun lam4n6 () Int)
(declare-fun lam4n8 () Int)
(declare-fun RFN1_CT () Int)
(declare-fun RFN1_arg1 () Int)
(declare-fun RFN1_arg2 () Int)
(declare-fun RFN1_arg3 () Int)
(declare-fun lam4n7 () Int)
(declare-fun RFN1_arg4 () Int)
(declare-fun RFN1_arg5 () Int)
(declare-fun lam2n0 () Int)
(declare-fun lam2n1 () Int)
(declare-fun lam2n2 () Int)
(declare-fun lam2n3 () Int)
(declare-fun lam2n4 () Int)
(declare-fun lam2n5 () Int)
(declare-fun lam2n6 () Int)
(declare-fun lam2n8 () Int)
(declare-fun lam2n7 () Int)
(declare-fun lam3n0 () Int)
(declare-fun lam3n1 () Int)
(declare-fun lam3n2 () Int)
(declare-fun lam3n3 () Int)
(declare-fun lam3n4 () Int)
(declare-fun lam3n5 () Int)
(declare-fun lam3n6 () Int)
(declare-fun lam3n8 () Int)
(declare-fun lam3n7 () Int)
(declare-fun lam5n0 () Int)
(declare-fun lam5n1 () Int)
(declare-fun lam5n2 () Int)
(declare-fun lam5n3 () Int)
(declare-fun lam5n4 () Int)
(declare-fun lam5n5 () Int)
(declare-fun lam5n6 () Int)
(declare-fun lam5n8 () Int)
(declare-fun lam5n7 () Int)
(assert ( and ( <= ( - 9 ) Nl2arg11 ) ( <= Nl2arg11 9 ) ( <= ( - 9 ) Nl2arg21 ) ( <= Nl2arg21 9 ) ( <= ( - 9 ) Nl2arg31 ) ( <= Nl2arg31 9 ) ( <= ( - 9 ) Nl2arg41 ) ( <= Nl2arg41 9 ) ( <= ( - 9 ) Nl2arg51 ) ( <= Nl2arg51 9 ) ))
(assert ( or ( and ( >= lam0n0 0 ) ( >= lam0n1 0 ) ( >= lam0n2 0 ) ( >= lam0n3 0 ) ( >= lam0n4 0 ) ( >= lam0n5 0 ) ( >= lam0n6 0 ) ( >= lam0n8 0 ) ( > ( + ( * 1 lam0n3 ) ( * 1 lam0n4 ) ( * 1 lam0n5 ) ( * 1 lam0n6 ) ( * Nl2CT1 lam0n8 ) ( - 1 ) ) 0 ) ( = ( + ( * ( - 1 ) lam0n0 ) ( * ( - 1 ) lam0n3 ) ( * ( - 1 ) lam0n4 ) ( * 1 lam0n7 ) ( * Nl2arg11 lam0n8 ) ) 0 ) ( = ( + ( * 1 lam0n3 ) ( * ( - 1 ) lam0n5 ) ( * ( - 1 ) lam0n7 ) ( * Nl2arg21 lam0n8 ) ) 0 ) ( = ( + ( * ( - 1 ) lam0n3 ) ( * ( - 1 ) lam0n4 ) ( * ( - 1 ) lam0n5 ) ( * ( - 1 ) lam0n6 ) ( * Nl2arg31 lam0n8 ) ) 0 ) ( = ( + ( * 1 lam0n1 ) ( * ( - 1 ) lam0n2 ) ( * Nl2arg41 lam0n8 ) ) 0 ) ( = ( + ( * ( - 1 ) lam0n1 ) ( * ( - 1 ) lam0n4 ) ( * Nl2arg51 lam0n8 ) ) 0 ) ) ( and ( >= lam1n0 0 ) ( >= lam1n1 0 ) ( >= lam1n2 0 ) ( >= lam1n3 0 ) ( >= lam1n4 0 ) ( >= lam1n5 0 ) ( >= lam1n6 0 ) ( >= lam1n8 0 ) ( > ( + ( * 1 lam1n3 ) ( * 1 lam1n4 ) ( * 1 lam1n5 ) ( * 1 lam1n6 ) ( * Nl2CT1 lam1n8 ) ( - 1 ( + ( + ( + Nl2CT1 ( * Nl2arg11 1 ) ) ( * Nl2arg21 1 ) ) ( * Nl2arg31 9 ) ) ) ) 0 ) ( = ( + ( * ( - 1 ) lam1n0 ) ( * ( - 1 ) lam1n3 ) ( * ( - 1 ) lam1n4 ) ( * 1 lam1n7 ) ( * Nl2arg11 lam1n8 ) ( - ( + ( + ( + 0 ( * Nl2arg11 1 ) ) ( * Nl2arg21 1 ) ) ( * Nl2arg31 ( - 1 ) ) ) ) ) 0 ) ( = ( + ( * 1 lam1n3 ) ( * ( - 1 ) lam1n5 ) ( * ( - 1 ) lam1n7 ) ( * Nl2arg21 lam1n8 ) ) 0 ) ( = ( + ( * ( - 1 ) lam1n3 ) ( * ( - 1 ) lam1n4 ) ( * ( - 1 ) lam1n5 ) ( * ( - 1 ) lam1n6 ) ( * Nl2arg31 lam1n8 ) ) 0 ) ( = ( + ( * 1 lam1n1 ) ( * ( - 1 ) lam1n2 ) ( * Nl2arg41 lam1n8 ) ( - ( + 0 Nl2arg41 ) ) ) 0 ) ( = ( + ( * ( - 1 ) lam1n1 ) ( * ( - 1 ) lam1n4 ) ( * Nl2arg51 lam1n8 ) ( - ( + 0 Nl2arg51 ) ) ) 0 ) ) ))
(assert ( or ( and ( >= lam0n0 0 ) ( >= lam0n1 0 ) ( >= lam0n2 0 ) ( >= lam0n3 0 ) ( >= lam0n4 0 ) ( >= lam0n5 0 ) ( >= lam0n6 0 ) ( >= lam0n8 0 ) ( > ( + ( * 1 lam0n3 ) ( * 1 lam0n4 ) ( * 1 lam0n5 ) ( * 1 lam0n6 ) ( * Nl2CT1 lam0n8 ) ( - 1 ) ) 0 ) ( = ( + ( * ( - 1 ) lam0n0 ) ( * ( - 1 ) lam0n3 ) ( * ( - 1 ) lam0n4 ) ( * 1 lam0n7 ) ( * Nl2arg11 lam0n8 ) ) 0 ) ( = ( + ( * 1 lam0n3 ) ( * ( - 1 ) lam0n5 ) ( * ( - 1 ) lam0n7 ) ( * Nl2arg21 lam0n8 ) ) 0 ) ( = ( + ( * ( - 1 ) lam0n3 ) ( * ( - 1 ) lam0n4 ) ( * ( - 1 ) lam0n5 ) ( * ( - 1 ) lam0n6 ) ( * Nl2arg31 lam0n8 ) ) 0 ) ( = ( + ( * 1 lam0n1 ) ( * ( - 1 ) lam0n2 ) ( * Nl2arg41 lam0n8 ) ) 0 ) ( = ( + ( * ( - 1 ) lam0n1 ) ( * ( - 1 ) lam0n4 ) ( * Nl2arg51 lam0n8 ) ) 0 ) ) ( and ( >= lam4n0 0 ) ( >= lam4n1 0 ) ( >= lam4n2 0 ) ( >= lam4n3 0 ) ( >= lam4n4 0 ) ( >= lam4n5 0 ) ( >= lam4n6 0 ) ( >= lam4n8 0 ) ( > ( + ( * 1 lam4n3 ) ( * 1 lam4n4 ) ( * 1 lam4n5 ) ( * 1 lam4n6 ) ( * Nl2CT1 lam4n8 ) ( - 1 ( - ( + ( + ( + RFN1_CT ( * RFN1_arg1 1 ) ) ( * RFN1_arg2 1 ) ) ( * RFN1_arg3 9 ) ) RFN1_CT ) ) ) 0 ) ( = ( + ( * ( - 1 ) lam4n0 ) ( * ( - 1 ) lam4n3 ) ( * ( - 1 ) lam4n4 ) ( * 1 lam4n7 ) ( * Nl2arg11 lam4n8 ) ( - ( - ( + ( + ( + 0 ( * RFN1_arg1 1 ) ) ( * RFN1_arg2 1 ) ) ( * RFN1_arg3 ( - 1 ) ) ) RFN1_arg1 ) ) ) 0 ) ( = ( + ( * 1 lam4n3 ) ( * ( - 1 ) lam4n5 ) ( * ( - 1 ) lam4n7 ) ( * Nl2arg21 lam4n8 ) ( - ( - RFN1_arg2 ) ) ) 0 ) ( = ( + ( * ( - 1 ) lam4n3 ) ( * ( - 1 ) lam4n4 ) ( * ( - 1 ) lam4n5 ) ( * ( - 1 ) lam4n6 ) ( * Nl2arg31 lam4n8 ) ( - ( - RFN1_arg3 ) ) ) 0 ) ( = ( + ( * 1 lam4n1 ) ( * ( - 1 ) lam4n2 ) ( * Nl2arg41 lam4n8 ) ( - ( - ( + 0 RFN1_arg4 ) RFN1_arg4 ) ) ) 0 ) ( = ( + ( * ( - 1 ) lam4n1 ) ( * ( - 1 ) lam4n4 ) ( * Nl2arg51 lam4n8 ) ( - ( - ( + 0 RFN1_arg5 ) RFN1_arg5 ) ) ) 0 ) ) ))
(assert ( and ( and ( and ( >= lam2n0 0 ) ( >= lam2n1 0 ) ( >= lam2n2 0 ) ( >= lam2n3 0 ) ( >= lam2n4 0 ) ( >= lam2n5 0 ) ( >= lam2n6 0 ) ( >= lam2n8 0 ) ( > ( + ( * 1 lam2n3 ) ( * 1 lam2n4 ) ( * 1 lam2n5 ) ( * 1 lam2n6 ) ( * Nl2CT1 lam2n8 ) ( - 1 ( - RFN1_CT ) ) ) 0 ) ( = ( + ( * ( - 1 ) lam2n0 ) ( * ( - 1 ) lam2n3 ) ( * ( - 1 ) lam2n4 ) ( * 1 lam2n7 ) ( * Nl2arg11 lam2n8 ) ( - ( - RFN1_arg1 ) ) ) 0 ) ( = ( + ( * 1 lam2n3 ) ( * ( - 1 ) lam2n5 ) ( * ( - 1 ) lam2n7 ) ( * Nl2arg21 lam2n8 ) ( - ( - RFN1_arg2 ) ) ) 0 ) ( = ( + ( * ( - 1 ) lam2n3 ) ( * ( - 1 ) lam2n4 ) ( * ( - 1 ) lam2n5 ) ( * ( - 1 ) lam2n6 ) ( * Nl2arg31 lam2n8 ) ( - ( - RFN1_arg3 ) ) ) 0 ) ( = ( + ( * 1 lam2n1 ) ( * ( - 1 ) lam2n2 ) ( * Nl2arg41 lam2n8 ) ( - ( - RFN1_arg4 ) ) ) 0 ) ( = ( + ( * ( - 1 ) lam2n1 ) ( * ( - 1 ) lam2n4 ) ( * Nl2arg51 lam2n8 ) ( - ( - RFN1_arg5 ) ) ) 0 ) ) ( and ( >= lam3n0 0 ) ( >= lam3n1 0 ) ( >= lam3n2 0 ) ( >= lam3n3 0 ) ( >= lam3n4 0 ) ( >= lam3n5 0 ) ( >= lam3n6 0 ) ( >= lam3n8 0 ) ( > ( + ( * 1 lam3n3 ) ( * 1 lam3n4 ) ( * 1 lam3n5 ) ( * 1 lam3n6 ) ( * Nl2CT1 lam3n8 ) ( - 1 ( + ( - ( + ( + ( + RFN1_CT ( * RFN1_arg1 1 ) ) ( * RFN1_arg2 1 ) ) ( * RFN1_arg3 9 ) ) RFN1_CT ) 1 ) ) ) 0 ) ( = ( + ( * ( - 1 ) lam3n0 ) ( * ( - 1 ) lam3n3 ) ( * ( - 1 ) lam3n4 ) ( * 1 lam3n7 ) ( * Nl2arg11 lam3n8 ) ( - ( - ( + ( + ( + 0 ( * RFN1_arg1 1 ) ) ( * RFN1_arg2 1 ) ) ( * RFN1_arg3 ( - 1 ) ) ) RFN1_arg1 ) ) ) 0 ) ( = ( + ( * 1 lam3n3 ) ( * ( - 1 ) lam3n5 ) ( * ( - 1 ) lam3n7 ) ( * Nl2arg21 lam3n8 ) ( - ( - RFN1_arg2 ) ) ) 0 ) ( = ( + ( * ( - 1 ) lam3n3 ) ( * ( - 1 ) lam3n4 ) ( * ( - 1 ) lam3n5 ) ( * ( - 1 ) lam3n6 ) ( * Nl2arg31 lam3n8 ) ( - ( - RFN1_arg3 ) ) ) 0 ) ( = ( + ( * 1 lam3n1 ) ( * ( - 1 ) lam3n2 ) ( * Nl2arg41 lam3n8 ) ( - ( - ( + 0 RFN1_arg4 ) RFN1_arg4 ) ) ) 0 ) ( = ( + ( * ( - 1 ) lam3n1 ) ( * ( - 1 ) lam3n4 ) ( * Nl2arg51 lam3n8 ) ( - ( - ( + 0 RFN1_arg5 ) RFN1_arg5 ) ) ) 0 ) ) ) ( and ( >= lam5n0 0 ) ( >= lam5n1 0 ) ( >= lam5n2 0 ) ( >= lam5n3 0 ) ( >= lam5n4 0 ) ( >= lam5n5 0 ) ( >= lam5n6 0 ) ( >= lam5n8 0 ) ( > ( + ( * 1 lam5n3 ) ( * 1 lam5n4 ) ( * 1 lam5n5 ) ( * 1 lam5n6 ) ( * ( + ( - Nl2CT1 ) 1 ) lam5n8 ) ( - 1 ) ) 0 ) ( = ( + ( * ( - 1 ) lam5n0 ) ( * ( - 1 ) lam5n3 ) ( * ( - 1 ) lam5n4 ) ( * 1 lam5n7 ) ( * ( - Nl2arg11 ) lam5n8 ) ) 0 ) ( = ( + ( * 1 lam5n3 ) ( * ( - 1 ) lam5n5 ) ( * ( - 1 ) lam5n7 ) ( * ( - Nl2arg21 ) lam5n8 ) ) 0 ) ( = ( + ( * ( - 1 ) lam5n3 ) ( * ( - 1 ) lam5n4 ) ( * ( - 1 ) lam5n5 ) ( * ( - 1 ) lam5n6 ) ( * ( - Nl2arg31 ) lam5n8 ) ) 0 ) ( = ( + ( * 1 lam5n1 ) ( * ( - 1 ) lam5n2 ) ( * ( - Nl2arg41 ) lam5n8 ) ) 0 ) ( = ( + ( * ( - 1 ) lam5n1 ) ( * ( - 1 ) lam5n4 ) ( * ( - Nl2arg51 ) lam5n8 ) ) 0 ) ) ))
(check-sat)
(exit)
